Route #1: 43 23 50 22 38 9 12 5 40
Route #2: 46 8 28 44 14 51 17 10 18
Route #3: 45 41 29 37 15 7 19
Route #4: 53 6 24 42 47 39 4 26 21
Route #5: 27 35 16 52 1 25
Route #6: 48 32 36 3
Route #7: 13 49 33 11 55 20 31 34 54 30 2
Cost 710
Time 0.117536
